;; Original file: adr_108.smt2
(set-logic HORN)
(declare-fun |f$unknown:2| (Int Int) Bool)


(assert (forall ((|$knormal:4| Int)
         (|$knormal:1| Int)
         (|$alpha-1:x| Int)
         (|$V-reftype:9| Int)
         (|$knormal:5| Int))
  (let ((a!1 (and (= |$knormal:4| (- 2))
                  (= (not (= 0 |$knormal:1|)) (< |$alpha-1:x| (- 1)))
                  (= |$V-reftype:9| |$knormal:5|)
                  (not (= 0 |$knormal:1|))
                  (|f$unknown:2| |$knormal:5| |$knormal:4|)
                  true)))
    (=> a!1 (|f$unknown:2| |$V-reftype:9| |$alpha-1:x|)))))
(assert (forall ((|$knormal:3| Int)
         (|$alpha-1:x| Int)
         (|$knormal:2| Int)
         (|$knormal:1| Int)
         (|$V-reftype:12| Int))
  (let ((a!1 (and (= |$knormal:3| (* 2 |$alpha-1:x|))
                  (= (not (= 0 |$knormal:2|)) (<= |$alpha-1:x| 1))
                  (= (not (= 0 |$knormal:1|)) (< |$alpha-1:x| (- 1)))
                  (= |$V-reftype:12| (- |$knormal:3| 1))
                  (not (not (= 0 |$knormal:1|)))
                  (not (= 0 |$knormal:2|))
                  true)))
    (=> a!1 (|f$unknown:2| |$V-reftype:12| |$alpha-1:x|)))))
(assert (forall ((|$knormal:2| Int)
         (|$alpha-1:x| Int)
         (|$knormal:1| Int)
         (|$V-reftype:13| Int))
  (let ((a!1 (and (= (not (= 0 |$knormal:2|)) (<= |$alpha-1:x| 1))
                  (= (not (= 0 |$knormal:1|)) (< |$alpha-1:x| (- 1)))
                  (= |$V-reftype:13| |$alpha-1:x|)
                  (not (not (= 0 |$knormal:2|)))
                  (not (not (= 0 |$knormal:1|)))
                  true)))
    (=> a!1 (|f$unknown:2| |$V-reftype:13| |$alpha-1:x|)))))
(assert (forall ((|$knormal:9| Int) (|$knormal:7| Int) (|$knormal:6| Int))
  (let ((a!1 (and (= (not (= 0 |$knormal:9|)) (>= |$knormal:7| 0))
                  (= |$knormal:6| 3)
                  (not (not (= 0 |$knormal:9|)))
                  (|f$unknown:2| |$knormal:7| |$knormal:6|))))
    (=> a!1 false))))
(check-sat)
